problem_generation/data/GISP/train/er_n=64_m=1232_p=0.60_SET2_setparam=100.00_alpha=0.50_659.lp
maximize
OBJ:100x0 + 100x1 + 100x2 + 100x3 + 100x4 + 100x5 + 100x6 + 100x7 + 100x8 + 100x9 + 100x10 + 100x11 + 100x12 + 100x13 + 100x14 + 100x15 + 100x16 + 100x17 + 100x18 + 100x19 + 100x20 + 100x21 + 100x22 + 100x23 + 100x24 + 100x25 + 100x26 + 100x27 + 100x28 + 100x29 + 100x30 + 100x31 + 100x32 + 100x33 + 100x34 + 100x35 + 100x36 + 100x37 + 100x38 + 100x39 + 100x40 + 100x41 + 100x42 + 100x43 + 100x44 + 100x45 + 100x46 + 100x47 + 100x48 + 100x49 + 100x50 + 100x51 + 100x52 + 100x53 + 100x54 + 100x55 + 100x56 + 100x57 + 100x58 + 100x59 + 100x60 + 100x61 + 100x62 + 100x63 - y36_53 - y15_30 - y26_30 - y7_26 - y15_39 - y26_39 - y7_35 - y18_44 - y0_5 - y0_14 - y11_23 - y21_55 - y25_34 - y2_41 - y33_56 - y3_24 - y14_24 - y3_33 - y36_48 - y7_21 - y47_57 - y17_53 - y7_30 - y18_30 - y17_62 - y6_34 - y29_36 - y48_49 - y6_43 - y40_45 - y48_58 - y21_50 - y10_22 - y25_29 - y10_40 - y2_36 - y44_51 - y2_45 - y22_23 - y3_19 - y14_28 - y3_37 - y14_37 - y16_56 - y55_56 - y29_31 - y9_62 - y21_27 - y48_53 - y29_49 - y6_56 - y40_58 - y21_54 - y2_13 - y10_35 - y33_37 - y3_5 - y43_59 - y14_32 - y16_60 - y36_38 - y28_34 - y36_47 - y55_60 - y36_56 - y17_52 - y58_62 - y6_33 - y29_35 - y21_31 - y10_21 - y54_55 - y12_58 - y32_36 - y4_63 - y32_45 - y43_45 - y13_41 - y1_48 - y13_50 - y17_29 - y17_38 - y36_51 - y9_34 - y5_45 - y9_43 - y17_56 - y28_56 - y50_53 - y6_28 - y9_61 - y27_60 - y50_62 - y61_62 - y6_46 - y10_16 - y39_61 - y2_21 - y20_57 - y23_53 - y2_30 - y4_49 - y13_27 - y4_58 - y1_34 - y32_49 - y43_49 - y35_54 - y24_63 - y9_11 - y5_22 - y17_24 - y17_42 - y5_49 - y6_14 - y9_47 - y58_61 - y6_32 - y8_51 - y42_53 - y21_30 - y8_60 - y42_62 - y0_56 - y20_34 - y10_11 - y2_7 - y31_52 - y20_61 - y32_35 - y13_31 - y13_40 - y24_40 - y13_49 - y16_54 - y5_17 - y46_55 - y9_24 - y38_60 - y49_60 - y5_44 - y27_50 - y11_60 - y12_25 - y39_51 - y2_11 - y4_39 - y12_52 - y1_15 - y13_17 - y23_52 - y12_61 - y53_62 - y34_58 - y1_42 - y16_49 - y5_12 - y9_10 - y9_19 - y26_53 - y49_55 - y9_28 - y7_58 - y6_13 - y19_32 - y50_56 - y42_52 - y0_46 - y11_46 - y8_59 - y19_59 - y12_20 - y20_33 - y4_25 - y23_38 - y4_34 - y12_47 - y23_47 - y4_43 - y34_53 - y45_53 - y24_30 - y16_26 - y22_60 - y1_37 - y34_62 - y16_35 - y1_46 - y38_41 - y5_16 - y15_48 - y49_50 - y5_25 - y57_63 - y7_53 - y27_31 - y7_62 - y8_27 - y8_36 - y11_32 - y42_47 - y0_41 - y30_54 - y4_20 - y1_14 - y4_47 - y53_61 - y45_57 - y1_32 - y37_53 - y14_60 - y26_34 - y5_11 - y46_49 - y38_45 - y7_39 - y49_63 - y7_57 - y19_31 - y0_27 - y11_27 - y19_40 - y0_36 - y8_49 - y19_49 - y0_45 - y11_45 - y30_58 - y20_23 - y4_6 - y0_54 - y4_15 - y33_60 - y12_37 - y25_56 - y1_9 - y22_41 - y34_43 - y53_56 - y22_50 - y22_59 - y37_57 - y7_34 - y15_47 - y26_47 - y38_49 - y7_43 - y15_56 - y8_17 - y8_26 - y0_22 - y30_35 - y41_50 - y60_63 - y33_46 - y44_46 - y12_23 - y10_62 - y1_13 - y37_43 - y22_54 - y37_52 - y7_20 - y7_29 - y15_42 - y26_42 - y18_38 - y7_47 - y18_56 - y11_17 - y25_37 - y4_14 - y10_48 - y52_63 - y25_46 - y10_57 - y2_53 - y22_31 - y2_62 - y14_27 - y14_36 - y37_38 - y45_51 - y3_45 - y14_45 - y15_19 - y14_63 - y15_28 - y7_24 - y18_24 - y7_33 - y8_16 - y0_12 - y29_48 - y19_25 - y6_55 - y21_53 - y4_9 - y44_45 - y41_58 - y25_41 - y44_54 - y3_13 - y10_61 - y14_22 - y34_37 - y14_31 - y37_42 - y22_53 - y14_49 - y47_55 - y17_60 - y0_7 - y6_41 - y0_16 - y6_50 - y29_52 - y21_48 - y6_59 - y21_57 - y10_38 - y2_34 - y25_36 - y10_47 - y44_49 - y10_56 - y51_57 - y25_54 - y14_17 - y32_53 - y22_30 - y3_26 - y32_62 - y13_58 - y14_35 - y3_44 - y16_63 - y36_41 - y28_46 - y9_42 - y17_55 - y9_51 - y48_51 - y6_45 - y40_47 - y21_43 - y21_61 - y10_33 - y2_29 - y25_31 - y25_40 - y51_52 - y2_47 - y43_57 - y13_53 - y1_60 - y24_62 - y17_32 - y17_41 - y47_54 - y5_48 - y17_50 - y47_63 - y6_22 - y9_55 - y6_31 - y21_29 - y6_40 - y2_6 - y2_15 - y10_28 - y20_60 - y10_37 - y13_39 - y35_48 - y3_25 - y14_25 - y16_44 - y43_61 - y16_62 - y17_27 - y9_23 - y5_43 - y36_58 - y9_41 - y17_54 - y28_54 - y9_50 - y50_60 - y29_37 - y6_44 - y39_50 - y20_46 - y10_23 - y39_59 - y31_55 - y54_57 - y10_32 - y2_28 - y23_60 - y13_25 - y32_38 - y13_34 - y32_56 - y43_56 - y1_50 - y1_59 - y35_61 - y5_20 - y17_22 - y28_40 - y5_47 - y17_49 - y50_55 - y21_28 - y6_39 - y8_58 - y0_63 - y2_14 - y20_50 - y31_50 - y12_46 - y23_55 - y13_29 - y24_29 - y32_42 - y16_34 - y1_45 - y13_47 - y16_43 - y1_54 - y5_15 - y46_53 - y5_33 - y27_48 - y6_25 - y42_46 - y21_23 - y30_53 - y0_49 - y19_62 - y30_62 - y0_58 - y31_36 - y10_13 - y2_9 - y20_45 - y12_41 - y54_56 - y20_63 - y4_46 - y1_22 - y4_55 - y16_20 - y32_37 - y1_31 - y16_29 - y24_51 - y5_19 - y46_57 - y38_53 - y38_62 - y49_62 - y30_39 - y8_48 - y12_18 - y0_62 - y4_23 - y23_36 - y31_49 - y12_45 - y4_41 - y1_17 - y13_19 - y4_50 - y23_63 - y4_59 - y34_60 - y45_60 - y13_37 - y56_60 - y9_12 - y38_48 - y57_61 - y9_21 - y15_55 - y5_32 - y8_25 - y19_34 - y0_30 - y8_43 - y19_43 - y27_56 - y0_39 - y42_54 - y0_48 - y11_48 - y12_13 - y60_62 - y31_35 - y23_31 - y31_44 - y12_40 - y1_3 - y23_40 - y34_46 - y1_21 - y13_23 - y4_54 - y22_62 - y3_58 - y37_60 - y46_47 - y38_43 - y46_56 - y9_16 - y38_52 - y49_52 - y18_46 - y38_61 - y49_61 - y8_20 - y19_20 - y27_33 - y0_25 - y8_38 - y27_51 - y0_34 - y19_47 - y0_43 - y11_43 - y20_21 - y11_52 - y11_61 - y12_35 - y23_35 - y23_44 - y25_63 - y4_40 - y34_41 - y22_48 - y34_50 - y45_50 - y37_46 - y45_59 - y56_59 - y15_27 - y26_27 - y15_36 - y26_36 - y15_45 - y18_50 - y18_59 - y48_60 - y0_20 - y8_33 - y8_42 - y0_38 - y0_47 - y41_48 - y52_57 - y33_53 - y44_53 - y25_49 - y1_2 - y45_54 - y37_49 - y15_40 - y7_36 - y15_58 - y26_58 - y7_54 - y18_54 - y0_15 - y19_28 - y30_37 - y21_56 - y0_33 - y41_43 - y33_39 - y33_48 - y33_57 - y22_29 - y2_60 - y25_62 - y34_40 - y22_47 - y37_54 - y14_61 - y18_22 - y26_35 - y15_44 - y17_63 - y7_40 - y7_49 - y0_10 - y8_23 - y0_19 - y30_32 - y21_51 - y11_28 - y33_34 - y33_43 - y33_52 - y44_52 - y33_61 - y22_24 - y44_61 - y2_55 - y3_20 - y25_57 - y3_29 - y22_51 - y14_47
 Subject to
C1: x0+x3 <=1 
C2: x0+x5-y0_5 <=1 
C3: x0+x6 <=1 
C4: x0+x7-y0_7 <=1 
C5: x0+x9 <=1 
C6: x0+x10-y0_10 <=1 
C7: x0+x11 <=1 
C8: x0+x12-y0_12 <=1 
C9: x0+x13 <=1 
C10: x0+x14-y0_14 <=1 
C11: x0+x15-y0_15 <=1 
C12: x0+x16-y0_16 <=1 
C13: x0+x19-y0_19 <=1 
C14: x0+x20-y0_20 <=1 
C15: x0+x22-y0_22 <=1 
C16: x0+x23 <=1 
C17: x0+x24 <=1 
C18: x0+x25-y0_25 <=1 
C19: x0+x27-y0_27 <=1 
C20: x0+x29 <=1 
C21: x0+x30-y0_30 <=1 
C22: x0+x32 <=1 
C23: x0+x33-y0_33 <=1 
C24: x0+x34-y0_34 <=1 
C25: x0+x35 <=1 
C26: x0+x36-y0_36 <=1 
C27: x0+x37 <=1 
C28: x0+x38-y0_38 <=1 
C29: x0+x39-y0_39 <=1 
C30: x0+x40 <=1 
C31: x0+x41-y0_41 <=1 
C32: x0+x43-y0_43 <=1 
C33: x0+x44 <=1 
C34: x0+x45-y0_45 <=1 
C35: x0+x46-y0_46 <=1 
C36: x0+x47-y0_47 <=1 
C37: x0+x48-y0_48 <=1 
C38: x0+x49-y0_49 <=1 
C39: x0+x52 <=1 
C40: x0+x54-y0_54 <=1 
C41: x0+x55 <=1 
C42: x0+x56-y0_56 <=1 
C43: x0+x58-y0_58 <=1 
C44: x0+x62-y0_62 <=1 
C45: x0+x63-y0_63 <=1 
C46: x1+x2-y1_2 <=1 
C47: x1+x3-y1_3 <=1 
C48: x1+x5 <=1 
C49: x1+x6 <=1 
C50: x1+x8 <=1 
C51: x1+x9-y1_9 <=1 
C52: x1+x11 <=1 
C53: x1+x13-y1_13 <=1 
C54: x1+x14-y1_14 <=1 
C55: x1+x15-y1_15 <=1 
C56: x1+x16 <=1 
C57: x1+x17-y1_17 <=1 
C58: x1+x18 <=1 
C59: x1+x19 <=1 
C60: x1+x20 <=1 
C61: x1+x21-y1_21 <=1 
C62: x1+x22-y1_22 <=1 
C63: x1+x27 <=1 
C64: x1+x28 <=1 
C65: x1+x30 <=1 
C66: x1+x31-y1_31 <=1 
C67: x1+x32-y1_32 <=1 
C68: x1+x33 <=1 
C69: x1+x34-y1_34 <=1 
C70: x1+x37-y1_37 <=1 
C71: x1+x41 <=1 
C72: x1+x42-y1_42 <=1 
C73: x1+x43 <=1 
C74: x1+x45-y1_45 <=1 
C75: x1+x46-y1_46 <=1 
C76: x1+x48-y1_48 <=1 
C77: x1+x49 <=1 
C78: x1+x50-y1_50 <=1 
C79: x1+x52 <=1 
C80: x1+x54-y1_54 <=1 
C81: x1+x55 <=1 
C82: x1+x59-y1_59 <=1 
C83: x1+x60-y1_60 <=1 
C84: x1+x61 <=1 
C85: x1+x62 <=1 
C86: x1+x63 <=1 
C87: x2+x5 <=1 
C88: x2+x6-y2_6 <=1 
C89: x2+x7-y2_7 <=1 
C90: x2+x8 <=1 
C91: x2+x9-y2_9 <=1 
C92: x2+x11-y2_11 <=1 
C93: x2+x13-y2_13 <=1 
C94: x2+x14-y2_14 <=1 
C95: x2+x15-y2_15 <=1 
C96: x2+x18 <=1 
C97: x2+x19 <=1 
C98: x2+x21-y2_21 <=1 
C99: x2+x23 <=1 
C100: x2+x24 <=1 
C101: x2+x25 <=1 
C102: x2+x28-y2_28 <=1 
C103: x2+x29-y2_29 <=1 
C104: x2+x30-y2_30 <=1 
C105: x2+x32 <=1 
C106: x2+x34-y2_34 <=1 
C107: x2+x36-y2_36 <=1 
C108: x2+x40 <=1 
C109: x2+x41-y2_41 <=1 
C110: x2+x45-y2_45 <=1 
C111: x2+x47-y2_47 <=1 
C112: x2+x49 <=1 
C113: x2+x50 <=1 
C114: x2+x51 <=1 
C115: x2+x53-y2_53 <=1 
C116: x2+x55-y2_55 <=1 
C117: x2+x56 <=1 
C118: x2+x57 <=1 
C119: x2+x58 <=1 
C120: x2+x60-y2_60 <=1 
C121: x2+x62-y2_62 <=1 
C122: x2+x63 <=1 
C123: x3+x5-y3_5 <=1 
C124: x3+x6 <=1 
C125: x3+x10 <=1 
C126: x3+x11 <=1 
C127: x3+x12 <=1 
C128: x3+x13-y3_13 <=1 
C129: x3+x16 <=1 
C130: x3+x19-y3_19 <=1 
C131: x3+x20-y3_20 <=1 
C132: x3+x21 <=1 
C133: x3+x22 <=1 
C134: x3+x23 <=1 
C135: x3+x24-y3_24 <=1 
C136: x3+x25-y3_25 <=1 
C137: x3+x26-y3_26 <=1 
C138: x3+x27 <=1 
C139: x3+x28 <=1 
C140: x3+x29-y3_29 <=1 
C141: x3+x30 <=1 
C142: x3+x32 <=1 
C143: x3+x33-y3_33 <=1 
C144: x3+x34 <=1 
C145: x3+x37-y3_37 <=1 
C146: x3+x39 <=1 
C147: x3+x40 <=1 
C148: x3+x41 <=1 
C149: x3+x43 <=1 
C150: x3+x44-y3_44 <=1 
C151: x3+x45-y3_45 <=1 
C152: x3+x53 <=1 
C153: x3+x57 <=1 
C154: x3+x58-y3_58 <=1 
C155: x3+x62 <=1 
C156: x4+x6-y4_6 <=1 
C157: x4+x7 <=1 
C158: x4+x9-y4_9 <=1 
C159: x4+x10 <=1 
C160: x4+x11 <=1 
C161: x4+x12 <=1 
C162: x4+x14-y4_14 <=1 
C163: x4+x15-y4_15 <=1 
C164: x4+x16 <=1 
C165: x4+x18 <=1 
C166: x4+x19 <=1 
C167: x4+x20-y4_20 <=1 
C168: x4+x21 <=1 
C169: x4+x23-y4_23 <=1 
C170: x4+x24 <=1 
C171: x4+x25-y4_25 <=1 
C172: x4+x26 <=1 
C173: x4+x27 <=1 
C174: x4+x28 <=1 
C175: x4+x34-y4_34 <=1 
C176: x4+x36 <=1 
C177: x4+x37 <=1 
C178: x4+x39-y4_39 <=1 
C179: x4+x40-y4_40 <=1 
C180: x4+x41-y4_41 <=1 
C181: x4+x42 <=1 
C182: x4+x43-y4_43 <=1 
C183: x4+x44 <=1 
C184: x4+x46-y4_46 <=1 
C185: x4+x47-y4_47 <=1 
C186: x4+x48 <=1 
C187: x4+x49-y4_49 <=1 
C188: x4+x50-y4_50 <=1 
C189: x4+x51 <=1 
C190: x4+x52 <=1 
C191: x4+x53 <=1 
C192: x4+x54-y4_54 <=1 
C193: x4+x55-y4_55 <=1 
C194: x4+x58-y4_58 <=1 
C195: x4+x59-y4_59 <=1 
C196: x4+x60 <=1 
C197: x4+x62 <=1 
C198: x4+x63-y4_63 <=1 
C199: x5+x6 <=1 
C200: x5+x9 <=1 
C201: x5+x11-y5_11 <=1 
C202: x5+x12-y5_12 <=1 
C203: x5+x15-y5_15 <=1 
C204: x5+x16-y5_16 <=1 
C205: x5+x17-y5_17 <=1 
C206: x5+x18 <=1 
C207: x5+x19-y5_19 <=1 
C208: x5+x20-y5_20 <=1 
C209: x5+x21 <=1 
C210: x5+x22-y5_22 <=1 
C211: x5+x25-y5_25 <=1 
C212: x5+x26 <=1 
C213: x5+x28 <=1 
C214: x5+x29 <=1 
C215: x5+x32-y5_32 <=1 
C216: x5+x33-y5_33 <=1 
C217: x5+x36 <=1 
C218: x5+x37 <=1 
C219: x5+x39 <=1 
C220: x5+x42 <=1 
C221: x5+x43-y5_43 <=1 
C222: x5+x44-y5_44 <=1 
C223: x5+x45-y5_45 <=1 
C224: x5+x46 <=1 
C225: x5+x47-y5_47 <=1 
C226: x5+x48-y5_48 <=1 
C227: x5+x49-y5_49 <=1 
C228: x5+x52 <=1 
C229: x5+x53 <=1 
C230: x5+x55 <=1 
C231: x5+x56 <=1 
C232: x5+x59 <=1 
C233: x5+x60 <=1 
C234: x5+x63 <=1 
C235: x6+x8 <=1 
C236: x6+x9 <=1 
C237: x6+x10 <=1 
C238: x6+x11 <=1 
C239: x6+x13-y6_13 <=1 
C240: x6+x14-y6_14 <=1 
C241: x6+x15 <=1 
C242: x6+x18 <=1 
C243: x6+x19 <=1 
C244: x6+x22-y6_22 <=1 
C245: x6+x23 <=1 
C246: x6+x24 <=1 
C247: x6+x25-y6_25 <=1 
C248: x6+x28-y6_28 <=1 
C249: x6+x30 <=1 
C250: x6+x31-y6_31 <=1 
C251: x6+x32-y6_32 <=1 
C252: x6+x33-y6_33 <=1 
C253: x6+x34-y6_34 <=1 
C254: x6+x35 <=1 
C255: x6+x39-y6_39 <=1 
C256: x6+x40-y6_40 <=1 
C257: x6+x41-y6_41 <=1 
C258: x6+x42 <=1 
C259: x6+x43-y6_43 <=1 
C260: x6+x44-y6_44 <=1 
C261: x6+x45-y6_45 <=1 
C262: x6+x46-y6_46 <=1 
C263: x6+x47 <=1 
C264: x6+x49 <=1 
C265: x6+x50-y6_50 <=1 
C266: x6+x53 <=1 
C267: x6+x55-y6_55 <=1 
C268: x6+x56-y6_56 <=1 
C269: x6+x59-y6_59 <=1 
C270: x6+x60 <=1 
C271: x6+x62 <=1 
C272: x6+x63 <=1 
C273: x7+x11 <=1 
C274: x7+x13 <=1 
C275: x7+x14 <=1 
C276: x7+x15 <=1 
C277: x7+x20-y7_20 <=1 
C278: x7+x21-y7_21 <=1 
C279: x7+x22 <=1 
C280: x7+x23 <=1 
C281: x7+x24-y7_24 <=1 
C282: x7+x26-y7_26 <=1 
C283: x7+x28 <=1 
C284: x7+x29-y7_29 <=1 
C285: x7+x30-y7_30 <=1 
C286: x7+x32 <=1 
C287: x7+x33-y7_33 <=1 
C288: x7+x34-y7_34 <=1 
C289: x7+x35-y7_35 <=1 
C290: x7+x36-y7_36 <=1 
C291: x7+x39-y7_39 <=1 
C292: x7+x40-y7_40 <=1 
C293: x7+x43-y7_43 <=1 
C294: x7+x47-y7_47 <=1 
C295: x7+x49-y7_49 <=1 
C296: x7+x50 <=1 
C297: x7+x51 <=1 
C298: x7+x52 <=1 
C299: x7+x53-y7_53 <=1 
C300: x7+x54-y7_54 <=1 
C301: x7+x55 <=1 
C302: x7+x56 <=1 
C303: x7+x57-y7_57 <=1 
C304: x7+x58-y7_58 <=1 
C305: x7+x59 <=1 
C306: x7+x60 <=1 
C307: x7+x61 <=1 
C308: x7+x62-y7_62 <=1 
C309: x8+x9 <=1 
C310: x8+x11 <=1 
C311: x8+x12 <=1 
C312: x8+x13 <=1 
C313: x8+x15 <=1 
C314: x8+x16-y8_16 <=1 
C315: x8+x17-y8_17 <=1 
C316: x8+x20-y8_20 <=1 
C317: x8+x23-y8_23 <=1 
C318: x8+x24 <=1 
C319: x8+x25-y8_25 <=1 
C320: x8+x26-y8_26 <=1 
C321: x8+x27-y8_27 <=1 
C322: x8+x29 <=1 
C323: x8+x30 <=1 
C324: x8+x31 <=1 
C325: x8+x33-y8_33 <=1 
C326: x8+x35 <=1 
C327: x8+x36-y8_36 <=1 
C328: x8+x38-y8_38 <=1 
C329: x8+x39 <=1 
C330: x8+x41 <=1 
C331: x8+x42-y8_42 <=1 
C332: x8+x43-y8_43 <=1 
C333: x8+x45 <=1 
C334: x8+x46 <=1 
C335: x8+x48-y8_48 <=1 
C336: x8+x49-y8_49 <=1 
C337: x8+x50 <=1 
C338: x8+x51-y8_51 <=1 
C339: x8+x52 <=1 
C340: x8+x57 <=1 
C341: x8+x58-y8_58 <=1 
C342: x8+x59-y8_59 <=1 
C343: x8+x60-y8_60 <=1 
C344: x9+x10-y9_10 <=1 
C345: x9+x11-y9_11 <=1 
C346: x9+x12-y9_12 <=1 
C347: x9+x15 <=1 
C348: x9+x16-y9_16 <=1 
C349: x9+x17 <=1 
C350: x9+x18 <=1 
C351: x9+x19-y9_19 <=1 
C352: x9+x21-y9_21 <=1 
C353: x9+x22 <=1 
C354: x9+x23-y9_23 <=1 
C355: x9+x24-y9_24 <=1 
C356: x9+x25 <=1 
C357: x9+x26 <=1 
C358: x9+x27 <=1 
C359: x9+x28-y9_28 <=1 
C360: x9+x29 <=1 
C361: x9+x33 <=1 
C362: x9+x34-y9_34 <=1 
C363: x9+x36 <=1 
C364: x9+x40 <=1 
C365: x9+x41-y9_41 <=1 
C366: x9+x42-y9_42 <=1 
C367: x9+x43-y9_43 <=1 
C368: x9+x46 <=1 
C369: x9+x47-y9_47 <=1 
C370: x9+x50-y9_50 <=1 
C371: x9+x51-y9_51 <=1 
C372: x9+x52 <=1 
C373: x9+x53 <=1 
C374: x9+x54 <=1 
C375: x9+x55-y9_55 <=1 
C376: x9+x56 <=1 
C377: x9+x59 <=1 
C378: x9+x61-y9_61 <=1 
C379: x9+x62-y9_62 <=1 
C380: x10+x11-y10_11 <=1 
C381: x10+x13-y10_13 <=1 
C382: x10+x14 <=1 
C383: x10+x15 <=1 
C384: x10+x16-y10_16 <=1 
C385: x10+x18 <=1 
C386: x10+x21-y10_21 <=1 
C387: x10+x22-y10_22 <=1 
C388: x10+x23-y10_23 <=1 
C389: x10+x26 <=1 
C390: x10+x27 <=1 
C391: x10+x28-y10_28 <=1 
C392: x10+x29 <=1 
C393: x10+x30 <=1 
C394: x10+x31 <=1 
C395: x10+x32-y10_32 <=1 
C396: x10+x33-y10_33 <=1 
C397: x10+x34 <=1 
C398: x10+x35-y10_35 <=1 
C399: x10+x37-y10_37 <=1 
C400: x10+x38-y10_38 <=1 
C401: x10+x40-y10_40 <=1 
C402: x10+x41 <=1 
C403: x10+x43 <=1 
C404: x10+x45 <=1 
C405: x10+x47-y10_47 <=1 
C406: x10+x48-y10_48 <=1 
C407: x10+x50 <=1 
C408: x10+x51 <=1 
C409: x10+x52 <=1 
C410: x10+x54 <=1 
C411: x10+x56-y10_56 <=1 
C412: x10+x57-y10_57 <=1 
C413: x10+x59 <=1 
C414: x10+x60 <=1 
C415: x10+x61-y10_61 <=1 
C416: x10+x62-y10_62 <=1 
C417: x11+x12 <=1 
C418: x11+x15 <=1 
C419: x11+x17-y11_17 <=1 
C420: x11+x18 <=1 
C421: x11+x19 <=1 
C422: x11+x22 <=1 
C423: x11+x23-y11_23 <=1 
C424: x11+x25 <=1 
C425: x11+x27-y11_27 <=1 
C426: x11+x28-y11_28 <=1 
C427: x11+x32-y11_32 <=1 
C428: x11+x33 <=1 
C429: x11+x35 <=1 
C430: x11+x36 <=1 
C431: x11+x37 <=1 
C432: x11+x42 <=1 
C433: x11+x43-y11_43 <=1 
C434: x11+x45-y11_45 <=1 
C435: x11+x46-y11_46 <=1 
C436: x11+x48-y11_48 <=1 
C437: x11+x49 <=1 
C438: x11+x52-y11_52 <=1 
C439: x11+x53 <=1 
C440: x11+x58 <=1 
C441: x11+x60-y11_60 <=1 
C442: x11+x61-y11_61 <=1 
C443: x11+x63 <=1 
C444: x12+x13-y12_13 <=1 
C445: x12+x17 <=1 
C446: x12+x18-y12_18 <=1 
C447: x12+x19 <=1 
C448: x12+x20-y12_20 <=1 
C449: x12+x21 <=1 
C450: x12+x22 <=1 
C451: x12+x23-y12_23 <=1 
C452: x12+x25-y12_25 <=1 
C453: x12+x26 <=1 
C454: x12+x30 <=1 
C455: x12+x31 <=1 
C456: x12+x32 <=1 
C457: x12+x33 <=1 
C458: x12+x34 <=1 
C459: x12+x35-y12_35 <=1 
C460: x12+x36 <=1 
C461: x12+x37-y12_37 <=1 
C462: x12+x40-y12_40 <=1 
C463: x12+x41-y12_41 <=1 
C464: x12+x42 <=1 
C465: x12+x45-y12_45 <=1 
C466: x12+x46-y12_46 <=1 
C467: x12+x47-y12_47 <=1 
C468: x12+x52-y12_52 <=1 
C469: x12+x57 <=1 
C470: x12+x58-y12_58 <=1 
C471: x12+x60 <=1 
C472: x12+x61-y12_61 <=1 
C473: x12+x62 <=1 
C474: x12+x63 <=1 
C475: x13+x16 <=1 
C476: x13+x17-y13_17 <=1 
C477: x13+x18 <=1 
C478: x13+x19-y13_19 <=1 
C479: x13+x23-y13_23 <=1 
C480: x13+x25-y13_25 <=1 
C481: x13+x26 <=1 
C482: x13+x27-y13_27 <=1 
C483: x13+x29-y13_29 <=1 
C484: x13+x31-y13_31 <=1 
C485: x13+x32 <=1 
C486: x13+x33 <=1 
C487: x13+x34-y13_34 <=1 
C488: x13+x35 <=1 
C489: x13+x36 <=1 
C490: x13+x37-y13_37 <=1 
C491: x13+x39-y13_39 <=1 
C492: x13+x40-y13_40 <=1 
C493: x13+x41-y13_41 <=1 
C494: x13+x45 <=1 
C495: x13+x46 <=1 
C496: x13+x47-y13_47 <=1 
C497: x13+x49-y13_49 <=1 
C498: x13+x50-y13_50 <=1 
C499: x13+x51 <=1 
C500: x13+x53-y13_53 <=1 
C501: x13+x57 <=1 
C502: x13+x58-y13_58 <=1 
C503: x13+x60 <=1 
C504: x13+x62 <=1 
C505: x14+x16 <=1 
C506: x14+x17-y14_17 <=1 
C507: x14+x20 <=1 
C508: x14+x22-y14_22 <=1 
C509: x14+x24-y14_24 <=1 
C510: x14+x25-y14_25 <=1 
C511: x14+x26 <=1 
C512: x14+x27-y14_27 <=1 
C513: x14+x28-y14_28 <=1 
C514: x14+x29 <=1 
C515: x14+x31-y14_31 <=1 
C516: x14+x32-y14_32 <=1 
C517: x14+x35-y14_35 <=1 
C518: x14+x36-y14_36 <=1 
C519: x14+x37-y14_37 <=1 
C520: x14+x38 <=1 
C521: x14+x42 <=1 
C522: x14+x43 <=1 
C523: x14+x44 <=1 
C524: x14+x45-y14_45 <=1 
C525: x14+x47-y14_47 <=1 
C526: x14+x48 <=1 
C527: x14+x49-y14_49 <=1 
C528: x14+x51 <=1 
C529: x14+x53 <=1 
C530: x14+x57 <=1 
C531: x14+x60-y14_60 <=1 
C532: x14+x61-y14_61 <=1 
C533: x14+x63-y14_63 <=1 
C534: x15+x16 <=1 
C535: x15+x18 <=1 
C536: x15+x19-y15_19 <=1 
C537: x15+x26 <=1 
C538: x15+x27-y15_27 <=1 
C539: x15+x28-y15_28 <=1 
C540: x15+x30-y15_30 <=1 
C541: x15+x33 <=1 
C542: x15+x36-y15_36 <=1 
C543: x15+x39-y15_39 <=1 
C544: x15+x40-y15_40 <=1 
C545: x15+x42-y15_42 <=1 
C546: x15+x43 <=1 
C547: x15+x44-y15_44 <=1 
C548: x15+x45-y15_45 <=1 
C549: x15+x47-y15_47 <=1 
C550: x15+x48-y15_48 <=1 
C551: x15+x49 <=1 
C552: x15+x51 <=1 
C553: x15+x54 <=1 
C554: x15+x55-y15_55 <=1 
C555: x15+x56-y15_56 <=1 
C556: x15+x57 <=1 
C557: x15+x58-y15_58 <=1 
C558: x15+x63 <=1 
C559: x16+x17 <=1 
C560: x16+x19 <=1 
C561: x16+x20-y16_20 <=1 
C562: x16+x26-y16_26 <=1 
C563: x16+x27 <=1 
C564: x16+x29-y16_29 <=1 
C565: x16+x31 <=1 
C566: x16+x33 <=1 
C567: x16+x34-y16_34 <=1 
C568: x16+x35-y16_35 <=1 
C569: x16+x40 <=1 
C570: x16+x42 <=1 
C571: x16+x43-y16_43 <=1 
C572: x16+x44-y16_44 <=1 
C573: x16+x46 <=1 
C574: x16+x49-y16_49 <=1 
C575: x16+x53 <=1 
C576: x16+x54-y16_54 <=1 
C577: x16+x56-y16_56 <=1 
C578: x16+x57 <=1 
C579: x16+x59 <=1 
C580: x16+x60-y16_60 <=1 
C581: x16+x61 <=1 
C582: x16+x62-y16_62 <=1 
C583: x16+x63-y16_63 <=1 
C584: x17+x21 <=1 
C585: x17+x22-y17_22 <=1 
C586: x17+x23 <=1 
C587: x17+x24-y17_24 <=1 
C588: x17+x26 <=1 
C589: x17+x27-y17_27 <=1 
C590: x17+x29-y17_29 <=1 
C591: x17+x31 <=1 
C592: x17+x32-y17_32 <=1 
C593: x17+x36 <=1 
C594: x17+x37 <=1 
C595: x17+x38-y17_38 <=1 
C596: x17+x41-y17_41 <=1 
C597: x17+x42-y17_42 <=1 
C598: x17+x44 <=1 
C599: x17+x45 <=1 
C600: x17+x46 <=1 
C601: x17+x49-y17_49 <=1 
C602: x17+x50-y17_50 <=1 
C603: x17+x52-y17_52 <=1 
C604: x17+x53-y17_53 <=1 
C605: x17+x54-y17_54 <=1 
C606: x17+x55-y17_55 <=1 
C607: x17+x56-y17_56 <=1 
C608: x17+x59 <=1 
C609: x17+x60-y17_60 <=1 
C610: x17+x61 <=1 
C611: x17+x62-y17_62 <=1 
C612: x17+x63-y17_63 <=1 
C613: x18+x21 <=1 
C614: x18+x22-y18_22 <=1 
C615: x18+x24-y18_24 <=1 
C616: x18+x26 <=1 
C617: x18+x27 <=1 
C618: x18+x28 <=1 
C619: x18+x30-y18_30 <=1 
C620: x18+x35 <=1 
C621: x18+x38-y18_38 <=1 
C622: x18+x39 <=1 
C623: x18+x42 <=1 
C624: x18+x44-y18_44 <=1 
C625: x18+x45 <=1 
C626: x18+x46-y18_46 <=1 
C627: x18+x49 <=1 
C628: x18+x50-y18_50 <=1 
C629: x18+x52 <=1 
C630: x18+x54-y18_54 <=1 
C631: x18+x56-y18_56 <=1 
C632: x18+x58 <=1 
C633: x18+x59-y18_59 <=1 
C634: x18+x63 <=1 
C635: x19+x20-y19_20 <=1 
C636: x19+x21 <=1 
C637: x19+x23 <=1 
C638: x19+x25-y19_25 <=1 
C639: x19+x26 <=1 
C640: x19+x27 <=1 
C641: x19+x28-y19_28 <=1 
C642: x19+x30 <=1 
C643: x19+x31-y19_31 <=1 
C644: x19+x32-y19_32 <=1 
C645: x19+x34-y19_34 <=1 
C646: x19+x35 <=1 
C647: x19+x36 <=1 
C648: x19+x37 <=1 
C649: x19+x40-y19_40 <=1 
C650: x19+x41 <=1 
C651: x19+x43-y19_43 <=1 
C652: x19+x44 <=1 
C653: x19+x47-y19_47 <=1 
C654: x19+x49-y19_49 <=1 
C655: x19+x50 <=1 
C656: x19+x51 <=1 
C657: x19+x56 <=1 
C658: x19+x58 <=1 
C659: x19+x59-y19_59 <=1 
C660: x19+x60 <=1 
C661: x19+x62-y19_62 <=1 
C662: x20+x21-y20_21 <=1 
C663: x20+x23-y20_23 <=1 
C664: x20+x26 <=1 
C665: x20+x27 <=1 
C666: x20+x28 <=1 
C667: x20+x29 <=1 
C668: x20+x33-y20_33 <=1 
C669: x20+x34-y20_34 <=1 
C670: x20+x37 <=1 
C671: x20+x38 <=1 
C672: x20+x39 <=1 
C673: x20+x42 <=1 
C674: x20+x45-y20_45 <=1 
C675: x20+x46-y20_46 <=1 
C676: x20+x47 <=1 
C677: x20+x48 <=1 
C678: x20+x49 <=1 
C679: x20+x50-y20_50 <=1 
C680: x20+x51 <=1 
C681: x20+x52 <=1 
C682: x20+x55 <=1 
C683: x20+x56 <=1 
C684: x20+x57-y20_57 <=1 
C685: x20+x58 <=1 
C686: x20+x60-y20_60 <=1 
C687: x20+x61-y20_61 <=1 
C688: x20+x62 <=1 
C689: x20+x63-y20_63 <=1 
C690: x21+x23-y21_23 <=1 
C691: x21+x24 <=1 
C692: x21+x25 <=1 
C693: x21+x26 <=1 
C694: x21+x27-y21_27 <=1 
C695: x21+x28-y21_28 <=1 
C696: x21+x29-y21_29 <=1 
C697: x21+x30-y21_30 <=1 
C698: x21+x31-y21_31 <=1 
C699: x21+x32 <=1 
C700: x21+x34 <=1 
C701: x21+x38 <=1 
C702: x21+x42 <=1 
C703: x21+x43-y21_43 <=1 
C704: x21+x44 <=1 
C705: x21+x45 <=1 
C706: x21+x46 <=1 
C707: x21+x48-y21_48 <=1 
C708: x21+x50-y21_50 <=1 
C709: x21+x51-y21_51 <=1 
C710: x21+x53-y21_53 <=1 
C711: x21+x54-y21_54 <=1 
C712: x21+x55-y21_55 <=1 
C713: x21+x56-y21_56 <=1 
C714: x21+x57-y21_57 <=1 
C715: x21+x58 <=1 
C716: x21+x60 <=1 
C717: x21+x61-y21_61 <=1 
C718: x22+x23-y22_23 <=1 
C719: x22+x24-y22_24 <=1 
C720: x22+x25 <=1 
C721: x22+x26 <=1 
C722: x22+x29-y22_29 <=1 
C723: x22+x30-y22_30 <=1 
C724: x22+x31-y22_31 <=1 
C725: x22+x33 <=1 
C726: x22+x35 <=1 
C727: x22+x36 <=1 
C728: x22+x38 <=1 
C729: x22+x41-y22_41 <=1 
C730: x22+x42 <=1 
C731: x22+x43 <=1 
C732: x22+x44 <=1 
C733: x22+x45 <=1 
C734: x22+x47-y22_47 <=1 
C735: x22+x48-y22_48 <=1 
C736: x22+x49 <=1 
C737: x22+x50-y22_50 <=1 
C738: x22+x51-y22_51 <=1 
C739: x22+x53-y22_53 <=1 
C740: x22+x54-y22_54 <=1 
C741: x22+x55 <=1 
C742: x22+x57 <=1 
C743: x22+x58 <=1 
C744: x22+x59-y22_59 <=1 
C745: x22+x60-y22_60 <=1 
C746: x22+x62-y22_62 <=1 
C747: x23+x26 <=1 
C748: x23+x29 <=1 
C749: x23+x30 <=1 
C750: x23+x31-y23_31 <=1 
C751: x23+x33 <=1 
C752: x23+x34 <=1 
C753: x23+x35-y23_35 <=1 
C754: x23+x36-y23_36 <=1 
C755: x23+x37 <=1 
C756: x23+x38-y23_38 <=1 
C757: x23+x39 <=1 
C758: x23+x40-y23_40 <=1 
C759: x23+x42 <=1 
C760: x23+x43 <=1 
C761: x23+x44-y23_44 <=1 
C762: x23+x46 <=1 
C763: x23+x47-y23_47 <=1 
C764: x23+x48 <=1 
C765: x23+x51 <=1 
C766: x23+x52-y23_52 <=1 
C767: x23+x53-y23_53 <=1 
C768: x23+x55-y23_55 <=1 
C769: x23+x56 <=1 
C770: x23+x58 <=1 
C771: x23+x59 <=1 
C772: x23+x60-y23_60 <=1 
C773: x23+x62 <=1 
C774: x23+x63-y23_63 <=1 
C775: x24+x27 <=1 
C776: x24+x29-y24_29 <=1 
C777: x24+x30-y24_30 <=1 
C778: x24+x32 <=1 
C779: x24+x34 <=1 
C780: x24+x35 <=1 
C781: x24+x36 <=1 
C782: x24+x37 <=1 
C783: x24+x38 <=1 
C784: x24+x40-y24_40 <=1 
C785: x24+x42 <=1 
C786: x24+x45 <=1 
C787: x24+x46 <=1 
C788: x24+x48 <=1 
C789: x24+x51-y24_51 <=1 
C790: x24+x55 <=1 
C791: x24+x58 <=1 
C792: x24+x62-y24_62 <=1 
C793: x24+x63-y24_63 <=1 
C794: x25+x26 <=1 
C795: x25+x27 <=1 
C796: x25+x29-y25_29 <=1 
C797: x25+x30 <=1 
C798: x25+x31-y25_31 <=1 
C799: x25+x32 <=1 
C800: x25+x34-y25_34 <=1 
C801: x25+x36-y25_36 <=1 
C802: x25+x37-y25_37 <=1 
C803: x25+x40-y25_40 <=1 
C804: x25+x41-y25_41 <=1 
C805: x25+x43 <=1 
C806: x25+x44 <=1 
C807: x25+x46-y25_46 <=1 
C808: x25+x49-y25_49 <=1 
C809: x25+x51 <=1 
C810: x25+x52 <=1 
C811: x25+x54-y25_54 <=1 
C812: x25+x55 <=1 
C813: x25+x56-y25_56 <=1 
C814: x25+x57-y25_57 <=1 
C815: x25+x58 <=1 
C816: x25+x60 <=1 
C817: x25+x61 <=1 
C818: x25+x62-y25_62 <=1 
C819: x25+x63-y25_63 <=1 
C820: x26+x27-y26_27 <=1 
C821: x26+x30-y26_30 <=1 
C822: x26+x31 <=1 
C823: x26+x34-y26_34 <=1 
C824: x26+x35-y26_35 <=1 
C825: x26+x36-y26_36 <=1 
C826: x26+x38 <=1 
C827: x26+x39-y26_39 <=1 
C828: x26+x41 <=1 
C829: x26+x42-y26_42 <=1 
C830: x26+x43 <=1 
C831: x26+x44 <=1 
C832: x26+x45 <=1 
C833: x26+x47-y26_47 <=1 
C834: x26+x50 <=1 
C835: x26+x52 <=1 
C836: x26+x53-y26_53 <=1 
C837: x26+x58-y26_58 <=1 
C838: x26+x61 <=1 
C839: x26+x63 <=1 
C840: x27+x31-y27_31 <=1 
C841: x27+x32 <=1 
C842: x27+x33-y27_33 <=1 
C843: x27+x34 <=1 
C844: x27+x36 <=1 
C845: x27+x38 <=1 
C846: x27+x39 <=1 
C847: x27+x42 <=1 
C848: x27+x44 <=1 
C849: x27+x46 <=1 
C850: x27+x48-y27_48 <=1 
C851: x27+x50-y27_50 <=1 
C852: x27+x51-y27_51 <=1 
C853: x27+x52 <=1 
C854: x27+x56-y27_56 <=1 
C855: x27+x58 <=1 
C856: x27+x59 <=1 
C857: x27+x60-y27_60 <=1 
C858: x27+x62 <=1 
C859: x27+x63 <=1 
C860: x28+x29 <=1 
C861: x28+x32 <=1 
C862: x28+x33 <=1 
C863: x28+x34-y28_34 <=1 
C864: x28+x40-y28_40 <=1 
C865: x28+x43 <=1 
C866: x28+x46-y28_46 <=1 
C867: x28+x47 <=1 
C868: x28+x48 <=1 
C869: x28+x49 <=1 
C870: x28+x50 <=1 
C871: x28+x53 <=1 
C872: x28+x54-y28_54 <=1 
C873: x28+x56-y28_56 <=1 
C874: x28+x57 <=1 
C875: x28+x60 <=1 
C876: x28+x62 <=1 
C877: x28+x63 <=1 
C878: x29+x31-y29_31 <=1 
C879: x29+x35-y29_35 <=1 
C880: x29+x36-y29_36 <=1 
C881: x29+x37-y29_37 <=1 
C882: x29+x40 <=1 
C883: x29+x41 <=1 
C884: x29+x42 <=1 
C885: x29+x43 <=1 
C886: x29+x47 <=1 
C887: x29+x48-y29_48 <=1 
C888: x29+x49-y29_49 <=1 
C889: x29+x50 <=1 
C890: x29+x51 <=1 
C891: x29+x52-y29_52 <=1 
C892: x29+x53 <=1 
C893: x29+x56 <=1 
C894: x29+x57 <=1 
C895: x29+x62 <=1 
C896: x29+x63 <=1 
C897: x30+x32-y30_32 <=1 
C898: x30+x33 <=1 
C899: x30+x34 <=1 
C900: x30+x35-y30_35 <=1 
C901: x30+x36 <=1 
C902: x30+x37-y30_37 <=1 
C903: x30+x38 <=1 
C904: x30+x39-y30_39 <=1 
C905: x30+x40 <=1 
C906: x30+x42 <=1 
C907: x30+x43 <=1 
C908: x30+x44 <=1 
C909: x30+x45 <=1 
C910: x30+x46 <=1 
C911: x30+x49 <=1 
C912: x30+x52 <=1 
C913: x30+x53-y30_53 <=1 
C914: x30+x54-y30_54 <=1 
C915: x30+x56 <=1 
C916: x30+x57 <=1 
C917: x30+x58-y30_58 <=1 
C918: x30+x59 <=1 
C919: x30+x60 <=1 
C920: x30+x62-y30_62 <=1 
C921: x30+x63 <=1 
C922: x31+x33 <=1 
C923: x31+x34 <=1 
C924: x31+x35-y31_35 <=1 
C925: x31+x36-y31_36 <=1 
C926: x31+x38 <=1 
C927: x31+x39 <=1 
C928: x31+x44-y31_44 <=1 
C929: x31+x45 <=1 
C930: x31+x47 <=1 
C931: x31+x49-y31_49 <=1 
C932: x31+x50-y31_50 <=1 
C933: x31+x52-y31_52 <=1 
C934: x31+x55-y31_55 <=1 
C935: x31+x57 <=1 
C936: x31+x59 <=1 
C937: x31+x61 <=1 
C938: x32+x35-y32_35 <=1 
C939: x32+x36-y32_36 <=1 
C940: x32+x37-y32_37 <=1 
C941: x32+x38-y32_38 <=1 
C942: x32+x41 <=1 
C943: x32+x42-y32_42 <=1 
C944: x32+x45-y32_45 <=1 
C945: x32+x46 <=1 
C946: x32+x49-y32_49 <=1 
C947: x32+x52 <=1 
C948: x32+x53-y32_53 <=1 
C949: x32+x56-y32_56 <=1 
C950: x32+x58 <=1 
C951: x32+x59 <=1 
C952: x32+x60 <=1 
C953: x32+x62-y32_62 <=1 
C954: x32+x63 <=1 
C955: x33+x34-y33_34 <=1 
C956: x33+x35 <=1 
C957: x33+x36 <=1 
C958: x33+x37-y33_37 <=1 
C959: x33+x39-y33_39 <=1 
C960: x33+x41 <=1 
C961: x33+x43-y33_43 <=1 
C962: x33+x46-y33_46 <=1 
C963: x33+x48-y33_48 <=1 
C964: x33+x50 <=1 
C965: x33+x51 <=1 
C966: x33+x52-y33_52 <=1 
C967: x33+x53-y33_53 <=1 
C968: x33+x54 <=1 
C969: x33+x55 <=1 
C970: x33+x56-y33_56 <=1 
C971: x33+x57-y33_57 <=1 
C972: x33+x60-y33_60 <=1 
C973: x33+x61-y33_61 <=1 
C974: x33+x62 <=1 
C975: x33+x63 <=1 
C976: x34+x37-y34_37 <=1 
C977: x34+x38 <=1 
C978: x34+x40-y34_40 <=1 
C979: x34+x41-y34_41 <=1 
C980: x34+x43-y34_43 <=1 
C981: x34+x44 <=1 
C982: x34+x45 <=1 
C983: x34+x46-y34_46 <=1 
C984: x34+x50-y34_50 <=1 
C985: x34+x52 <=1 
C986: x34+x53-y34_53 <=1 
C987: x34+x56 <=1 
C988: x34+x58-y34_58 <=1 
C989: x34+x60-y34_60 <=1 
C990: x34+x62-y34_62 <=1 
C991: x34+x63 <=1 
C992: x35+x40 <=1 
C993: x35+x43 <=1 
C994: x35+x45 <=1 
C995: x35+x46 <=1 
C996: x35+x47 <=1 
C997: x35+x48-y35_48 <=1 
C998: x35+x49 <=1 
C999: x35+x50 <=1 
C1000: x35+x51 <=1 
C1001: x35+x54-y35_54 <=1 
C1002: x35+x56 <=1 
C1003: x35+x60 <=1 
C1004: x35+x61-y35_61 <=1 
C1005: x36+x37 <=1 
C1006: x36+x38-y36_38 <=1 
C1007: x36+x39 <=1 
C1008: x36+x41-y36_41 <=1 
C1009: x36+x43 <=1 
C1010: x36+x45 <=1 
C1011: x36+x47-y36_47 <=1 
C1012: x36+x48-y36_48 <=1 
C1013: x36+x49 <=1 
C1014: x36+x51-y36_51 <=1 
C1015: x36+x52 <=1 
C1016: x36+x53-y36_53 <=1 
C1017: x36+x55 <=1 
C1018: x36+x56-y36_56 <=1 
C1019: x36+x57 <=1 
C1020: x36+x58-y36_58 <=1 
C1021: x37+x38-y37_38 <=1 
C1022: x37+x39 <=1 
C1023: x37+x40 <=1 
C1024: x37+x41 <=1 
C1025: x37+x42-y37_42 <=1 
C1026: x37+x43-y37_43 <=1 
C1027: x37+x46-y37_46 <=1 
C1028: x37+x47 <=1 
C1029: x37+x49-y37_49 <=1 
C1030: x37+x51 <=1 
C1031: x37+x52-y37_52 <=1 
C1032: x37+x53-y37_53 <=1 
C1033: x37+x54-y37_54 <=1 
C1034: x37+x57-y37_57 <=1 
C1035: x37+x59 <=1 
C1036: x37+x60-y37_60 <=1 
C1037: x37+x61 <=1 
C1038: x37+x62 <=1 
C1039: x37+x63 <=1 
C1040: x38+x40 <=1 
C1041: x38+x41-y38_41 <=1 
C1042: x38+x43-y38_43 <=1 
C1043: x38+x45-y38_45 <=1 
C1044: x38+x46 <=1 
C1045: x38+x47 <=1 
C1046: x38+x48-y38_48 <=1 
C1047: x38+x49-y38_49 <=1 
C1048: x38+x51 <=1 
C1049: x38+x52-y38_52 <=1 
C1050: x38+x53-y38_53 <=1 
C1051: x38+x54 <=1 
C1052: x38+x55 <=1 
C1053: x38+x56 <=1 
C1054: x38+x59 <=1 
C1055: x38+x60-y38_60 <=1 
C1056: x38+x61-y38_61 <=1 
C1057: x38+x62-y38_62 <=1 
C1058: x39+x41 <=1 
C1059: x39+x42 <=1 
C1060: x39+x43 <=1 
C1061: x39+x44 <=1 
C1062: x39+x45 <=1 
C1063: x39+x47 <=1 
C1064: x39+x49 <=1 
C1065: x39+x50-y39_50 <=1 
C1066: x39+x51-y39_51 <=1 
C1067: x39+x53 <=1 
C1068: x39+x54 <=1 
C1069: x39+x57 <=1 
C1070: x39+x59-y39_59 <=1 
C1071: x39+x60 <=1 
C1072: x39+x61-y39_61 <=1 
C1073: x39+x63 <=1 
C1074: x40+x41 <=1 
C1075: x40+x45-y40_45 <=1 
C1076: x40+x47-y40_47 <=1 
C1077: x40+x58-y40_58 <=1 
C1078: x40+x60 <=1 
C1079: x40+x61 <=1 
C1080: x40+x62 <=1 
C1081: x40+x63 <=1 
C1082: x41+x43-y41_43 <=1 
C1083: x41+x44 <=1 
C1084: x41+x46 <=1 
C1085: x41+x47 <=1 
C1086: x41+x48-y41_48 <=1 
C1087: x41+x50-y41_50 <=1 
C1088: x41+x54 <=1 
C1089: x41+x56 <=1 
C1090: x41+x57 <=1 
C1091: x41+x58-y41_58 <=1 
C1092: x41+x59 <=1 
C1093: x41+x60 <=1 
C1094: x42+x45 <=1 
C1095: x42+x46-y42_46 <=1 
C1096: x42+x47-y42_47 <=1 
C1097: x42+x48 <=1 
C1098: x42+x52-y42_52 <=1 
C1099: x42+x53-y42_53 <=1 
C1100: x42+x54-y42_54 <=1 
C1101: x42+x56 <=1 
C1102: x42+x57 <=1 
C1103: x42+x61 <=1 
C1104: x42+x62-y42_62 <=1 
C1105: x43+x45-y43_45 <=1 
C1106: x43+x48 <=1 
C1107: x43+x49-y43_49 <=1 
C1108: x43+x51 <=1 
C1109: x43+x54 <=1 
C1110: x43+x55 <=1 
C1111: x43+x56-y43_56 <=1 
C1112: x43+x57-y43_57 <=1 
C1113: x43+x58 <=1 
C1114: x43+x59-y43_59 <=1 
C1115: x43+x61-y43_61 <=1 
C1116: x44+x45-y44_45 <=1 
C1117: x44+x46-y44_46 <=1 
C1118: x44+x47 <=1 
C1119: x44+x49-y44_49 <=1 
C1120: x44+x51-y44_51 <=1 
C1121: x44+x52-y44_52 <=1 
C1122: x44+x53-y44_53 <=1 
C1123: x44+x54-y44_54 <=1 
C1124: x44+x55 <=1 
C1125: x44+x56 <=1 
C1126: x44+x57 <=1 
C1127: x44+x58 <=1 
C1128: x44+x60 <=1 
C1129: x44+x61-y44_61 <=1 
C1130: x44+x62 <=1 
C1131: x44+x63 <=1 
C1132: x45+x48 <=1 
C1133: x45+x50-y45_50 <=1 
C1134: x45+x51-y45_51 <=1 
C1135: x45+x53-y45_53 <=1 
C1136: x45+x54-y45_54 <=1 
C1137: x45+x55 <=1 
C1138: x45+x56 <=1 
C1139: x45+x57-y45_57 <=1 
C1140: x45+x58 <=1 
C1141: x45+x59-y45_59 <=1 
C1142: x45+x60-y45_60 <=1 
C1143: x45+x63 <=1 
C1144: x46+x47-y46_47 <=1 
C1145: x46+x49-y46_49 <=1 
C1146: x46+x53-y46_53 <=1 
C1147: x46+x55-y46_55 <=1 
C1148: x46+x56-y46_56 <=1 
C1149: x46+x57-y46_57 <=1 
C1150: x46+x58 <=1 
C1151: x46+x60 <=1 
C1152: x46+x62 <=1 
C1153: x46+x63 <=1 
C1154: x47+x49 <=1 
C1155: x47+x52 <=1 
C1156: x47+x54-y47_54 <=1 
C1157: x47+x55-y47_55 <=1 
C1158: x47+x57-y47_57 <=1 
C1159: x47+x59 <=1 
C1160: x47+x60 <=1 
C1161: x47+x61 <=1 
C1162: x47+x63-y47_63 <=1 
C1163: x48+x49-y48_49 <=1 
C1164: x48+x50 <=1 
C1165: x48+x51-y48_51 <=1 
C1166: x48+x52 <=1 
C1167: x48+x53-y48_53 <=1 
C1168: x48+x58-y48_58 <=1 
C1169: x48+x59 <=1 
C1170: x48+x60-y48_60 <=1 
C1171: x48+x61 <=1 
C1172: x48+x63 <=1 
C1173: x49+x50-y49_50 <=1 
C1174: x49+x52-y49_52 <=1 
C1175: x49+x53 <=1 
C1176: x49+x54 <=1 
C1177: x49+x55-y49_55 <=1 
C1178: x49+x56 <=1 
C1179: x49+x57 <=1 
C1180: x49+x60-y49_60 <=1 
C1181: x49+x61-y49_61 <=1 
C1182: x49+x62-y49_62 <=1 
C1183: x49+x63-y49_63 <=1 
C1184: x50+x52 <=1 
C1185: x50+x53-y50_53 <=1 
C1186: x50+x55-y50_55 <=1 
C1187: x50+x56-y50_56 <=1 
C1188: x50+x59 <=1 
C1189: x50+x60-y50_60 <=1 
C1190: x50+x62-y50_62 <=1 
C1191: x51+x52-y51_52 <=1 
C1192: x51+x53 <=1 
C1193: x51+x54 <=1 
C1194: x51+x57-y51_57 <=1 
C1195: x51+x59 <=1 
C1196: x51+x62 <=1 
C1197: x52+x54 <=1 
C1198: x52+x57-y52_57 <=1 
C1199: x52+x60 <=1 
C1200: x52+x62 <=1 
C1201: x52+x63-y52_63 <=1 
C1202: x53+x55 <=1 
C1203: x53+x56-y53_56 <=1 
C1204: x53+x57 <=1 
C1205: x53+x59 <=1 
C1206: x53+x61-y53_61 <=1 
C1207: x53+x62-y53_62 <=1 
C1208: x54+x55-y54_55 <=1 
C1209: x54+x56-y54_56 <=1 
C1210: x54+x57-y54_57 <=1 
C1211: x54+x59 <=1 
C1212: x54+x60 <=1 
C1213: x54+x61 <=1 
C1214: x54+x63 <=1 
C1215: x55+x56-y55_56 <=1 
C1216: x55+x57 <=1 
C1217: x55+x58 <=1 
C1218: x55+x60-y55_60 <=1 
C1219: x56+x59-y56_59 <=1 
C1220: x56+x60-y56_60 <=1 
C1221: x56+x62 <=1 
C1222: x57+x58 <=1 
C1223: x57+x61-y57_61 <=1 
C1224: x57+x63-y57_63 <=1 
C1225: x58+x59 <=1 
C1226: x58+x60 <=1 
C1227: x58+x61-y58_61 <=1 
C1228: x58+x62-y58_62 <=1 
C1229: x60+x61 <=1 
C1230: x60+x62-y60_62 <=1 
C1231: x60+x63-y60_63 <=1 
C1232: x61+x62-y61_62 <=1 

binary
x0
x1
x2
x3
x4
x5
x6
x7
x8
x9
x10
x11
x12
x13
x14
x15
x16
x17
x18
x19
x20
x21
x22
x23
x24
x25
x26
x27
x28
x29
x30
x31
x32
x33
x34
x35
x36
x37
x38
x39
x40
x41
x42
x43
x44
x45
x46
x47
x48
x49
x50
x51
x52
x53
x54
x55
x56
x57
x58
x59
x60
x61
x62
x63
