problem_generation/data/GISP/train/er_n=64_m=1232_p=0.60_SET2_setparam=100.00_alpha=0.50_659.sol
objective value:                                 1268
x0                                                  1 	(obj:100)
x7                                                  1 	(obj:100)
x8                                                  1 	(obj:100)
x17                                                 1 	(obj:100)
x18                                                 1 	(obj:100)
x19                                                 1 	(obj:100)
x25                                                 1 	(obj:100)
x34                                                 1 	(obj:100)
x47                                                 1 	(obj:100)
x48                                                 1 	(obj:100)
x53                                                 1 	(obj:100)
x54                                                 1 	(obj:100)
x62                                                 1 	(obj:100)
y25_34                                              1 	(obj:-1)
y17_53                                              1 	(obj:-1)
y17_62                                              1 	(obj:-1)
y48_53                                              1 	(obj:-1)
y53_62                                              1 	(obj:-1)
y34_53                                              1 	(obj:-1)
y34_62                                              1 	(obj:-1)
y7_53                                               1 	(obj:-1)
y7_62                                               1 	(obj:-1)
y0_54                                               1 	(obj:-1)
y7_34                                               1 	(obj:-1)
y8_17                                               1 	(obj:-1)
y7_47                                               1 	(obj:-1)
y19_25                                              1 	(obj:-1)
y0_7                                                1 	(obj:-1)
y25_54                                              1 	(obj:-1)
y47_54                                              1 	(obj:-1)
y17_54                                              1 	(obj:-1)
y19_62                                              1 	(obj:-1)
y8_48                                               1 	(obj:-1)
y0_62                                               1 	(obj:-1)
y8_25                                               1 	(obj:-1)
y19_34                                              1 	(obj:-1)
y0_48                                               1 	(obj:-1)
y0_25                                               1 	(obj:-1)
y0_34                                               1 	(obj:-1)
y19_47                                              1 	(obj:-1)
y0_47                                               1 	(obj:-1)
y7_54                                               1 	(obj:-1)
y18_54                                              1 	(obj:-1)
y25_62                                              1 	(obj:-1)
y0_19                                               1 	(obj:-1)
